************************************************************************
file with basedata            : ma14_.bas
initial value random generator: 1423242501
************************************************************************
projects                      :  1
jobs (incl. supersource/sink ):  12
horizon                       :  74
RESOURCES
  - renewable                 :  2   R
  - nonrenewable              :  2   N
  - doubly constrained        :  0   D
************************************************************************
PROJECT INFORMATION:
pronr.  #jobs rel.date duedate tardcost  MPM-Time
    1     10      0       17        5       17
************************************************************************
PRECEDENCE RELATIONS:
jobnr.    #modes  #successors   successors
   0        1          3           1   2   3
   1        3          3           4   7   8
   2        3          1           5
   3        3          2           6   8
   4        3          2           6   9
   5        3          2           8  10
   6        3          1          10
   7        3          1           9
   8        3          1          11
   9        3          1          11
  10        3          1          11
  11        1          0        
************************************************************************
REQUESTS/DURATIONS:
jobnr. mode duration  R 1  R 2  R 3  R 4  E(W 1)  E(W 2)  E(W 3)
------------------------------------------------------------------------
  0      1     0       0    0    0    0     0       0       0
  1      1     5       7    3    7   10    50      35      50
  2      1     1       9    4    2   10    13       2      10
  3      1     8       4    8    9    4    96      72      32
  4      1     3       9   10    6    2    57      18       6
  5      1     3       9    8    2    7    51       6      21
  6      1     1       8    8    7    3    16       7       3
  7      1     1       8    2    9    9    10       9       9
  8      1     6       7    8    4    9    90      24      54
  9      1     4       6    7   10    6    52      40      24
 10      1     8       7    6   10    6    104      80      48
 11      1     0       0    0    0    0     0       0       0
************************************************************************
RESOURCEAVAILABILITIES:
  R 1  R 2  R 3
   45   48   46
************************************************************************
RESOURCE LIMITS:
jobnr.  l(R 1)  u(R 1)  l(R 2)  u(R 2)  l(R 3)  u(R 3)
------------------------------------------------------------------------
  0        0       0       0       0       0       0
  1        6      10       4       7       5      10
  2        7      13       1       2       5      10
  3        6      12       5       9       2       4
  4       10      19       3       6       1       2
  5        9      17       1       2       4       7
  6        8      16       4       7       2       3
  7        5      10       5       9       5       9
  8        8      15       2       4       5       9
  9        7      13       5      10       3       6
 10        7      13       5      10       3       6
 11        0       0       0       0       0       0
************************************************************************
SCENARIOS:
------------------------------------------------------------------------
RESOURCE k = 1
s = 1: (0, 41, 20, 116, 45, 48, 12, 9, 113, 34, 72, 0)
s = 2: (0, 63, 11, 93, 86, 32, 9, 8, 116, 45, 92, 0)
s = 3: (0, 36, 9, 138, 55, 35, 21, 13, 66, 42, 185, 0)
s = 4: (0, 56, 17, 83, 63, 39, 22, 8, 78, 67, 117, 0)
s = 5: (0, 40, 10, 90, 37, 50, 18, 14, 93, 59, 100, 0)
s = 6: (0, 59, 12, 86, 87, 52, 17, 10, 102, 58, 85, 0)
s = 7: (0, 36, 14, 68, 91, 59, 15, 12, 97, 82, 127, 0)
s = 8: (0, 71, 16, 113, 65, 84, 19, 10, 56, 66, 144, 0)
s = 9: (0, 31, 24, 53, 69, 46, 18, 8, 70, 63, 129, 0)
s = 10: (0, 55, 8, 95, 41, 64, 14, 12, 60, 67, 81, 0)
s = 11: (0, 46, 10, 100, 56, 34, 15, 9, 122, 34, 99, 0)
s = 12: (0, 70, 10, 84, 54, 46, 14, 8, 54, 54, 93, 0)
s = 13: (0, 79, 11, 78, 53, 38, 11, 7, 65, 70, 135, 0)
s = 14: (0, 37, 10, 68, 45, 75, 21, 9, 90, 32, 88, 0)
s = 15: (0, 72, 14, 101, 42, 70, 16, 14, 75, 39, 134, 0)
s = 16: (0, 43, 21, 142, 52, 67, 11, 11, 104, 53, 108, 0)
s = 17: (0, 68, 16, 108, 74, 46, 14, 10, 56, 42, 81, 0)
s = 18: (0, 55, 8, 88, 41, 69, 22, 9, 124, 42, 66, 0)
s = 19: (0, 46, 12, 62, 49, 32, 27, 9, 73, 40, 122, 0)
s = 20: (0, 49, 13, 79, 73, 34, 21, 10, 122, 74, 76, 0)
s = 21: (0, 29, 7, 57, 48, 30, 19, 13, 79, 74, 96, 0)
s = 22: (0, 46, 15, 107, 47, 65, 9, 11, 71, 52, 81, 0)
s = 23: (0, 44, 9, 105, 55, 55, 14, 9, 76, 60, 104, 0)
s = 24: (0, 60, 14, 97, 73, 55, 16, 17, 95, 41, 77, 0)
s = 25: (0, 64, 15, 133, 49, 46, 16, 9, 132, 53, 80, 0)
s = 26: (0, 45, 18, 79, 52, 59, 13, 13, 141, 36, 102, 0)
s = 27: (0, 62, 15, 146, 65, 70, 13, 10, 99, 44, 154, 0)
s = 28: (0, 57, 12, 162, 64, 49, 12, 11, 95, 50, 116, 0)
s = 29: (0, 45, 15, 78, 57, 47, 10, 8, 67, 42, 73, 0)
s = 30: (0, 51, 11, 124, 68, 42, 11, 8, 76, 59, 103, 0)
s = 31: (0, 49, 16, 98, 65, 54, 22, 8, 72, 50, 82, 0)
s = 32: (0, 38, 17, 77, 79, 41, 21, 15, 79, 73, 81, 0)
s = 33: (0, 61, 15, 167, 57, 48, 15, 12, 82, 51, 95, 0)
s = 34: (0, 62, 18, 85, 84, 53, 14, 9, 89, 30, 125, 0)
s = 35: (0, 72, 9, 143, 54, 54, 15, 12, 92, 58, 115, 0)
s = 36: (0, 51, 11, 78, 38, 67, 13, 9, 76, 70, 81, 0)
s = 37: (0, 64, 10, 65, 82, 56, 15, 16, 76, 56, 62, 0)
s = 38: (0, 62, 8, 69, 65, 59, 18, 11, 74, 49, 68, 0)
s = 39: (0, 69, 15, 78, 71, 75, 11, 7, 84, 27, 104, 0)
s = 40: (0, 36, 14, 116, 58, 54, 17, 8, 85, 44, 128, 0)
s = 41: (0, 63, 12, 99, 54, 51, 16, 15, 141, 61, 102, 0)
s = 42: (0, 53, 14, 84, 62, 37, 15, 9, 82, 68, 129, 0)
s = 43: (0, 63, 13, 84, 64, 43, 13, 10, 139, 69, 149, 0)
s = 44: (0, 43, 16, 55, 56, 58, 10, 14, 62, 52, 93, 0)
s = 45: (0, 30, 16, 90, 60, 37, 19, 11, 100, 55, 102, 0)
s = 46: (0, 40, 14, 147, 94, 35, 18, 13, 143, 80, 79, 0)
s = 47: (0, 39, 19, 67, 103, 58, 9, 13, 77, 55, 100, 0)
s = 48: (0, 55, 12, 76, 42, 74, 16, 14, 84, 38, 113, 0)
s = 49: (0, 48, 14, 106, 41, 50, 11, 13, 78, 70, 85, 0)
s = 50: (0, 50, 13, 126, 97, 46, 23, 10, 77, 66, 102, 0)
s = 51: (0, 51, 18, 70, 66, 53, 12, 7, 67, 45, 86, 0)
s = 52: (0, 63, 10, 152, 58, 58, 23, 13, 70, 60, 140, 0)
s = 53: (0, 35, 10, 89, 45, 79, 17, 10, 59, 31, 109, 0)
s = 54: (0, 38, 10, 89, 55, 59, 14, 11, 106, 63, 95, 0)
s = 55: (0, 58, 19, 75, 59, 28, 27, 10, 110, 71, 79, 0)
s = 56: (0, 39, 13, 70, 90, 67, 16, 13, 114, 36, 154, 0)
s = 57: (0, 43, 14, 91, 45, 75, 14, 9, 49, 78, 102, 0)
s = 58: (0, 44, 10, 73, 64, 51, 21, 12, 70, 62, 74, 0)
s = 59: (0, 36, 9, 72, 55, 41, 16, 16, 86, 38, 117, 0)
s = 60: (0, 62, 13, 62, 44, 57, 17, 15, 88, 38, 79, 0)
s = 61: (0, 47, 10, 83, 69, 51, 13, 13, 74, 48, 111, 0)
s = 62: (0, 64, 20, 54, 63, 35, 15, 11, 60, 42, 124, 0)
s = 63: (0, 30, 17, 112, 57, 51, 16, 8, 110, 38, 74, 0)
s = 64: (0, 34, 14, 119, 45, 75, 13, 17, 141, 66, 78, 0)
s = 65: (0, 43, 13, 106, 43, 56, 16, 11, 87, 29, 166, 0)
s = 66: (0, 57, 10, 98, 53, 36, 15, 13, 69, 40, 102, 0)
s = 67: (0, 50, 19, 73, 58, 42, 13, 10, 59, 39, 94, 0)
s = 68: (0, 59, 15, 137, 69, 35, 14, 9, 64, 75, 69, 0)
s = 69: (0, 50, 13, 112, 61, 55, 12, 10, 58, 87, 100, 0)
s = 70: (0, 37, 14, 73, 85, 52, 15, 6, 72, 36, 131, 0)
s = 71: (0, 52, 9, 100, 79, 41, 14, 7, 70, 53, 97, 0)
s = 72: (0, 56, 12, 74, 42, 35, 19, 7, 82, 72, 63, 0)
s = 73: (0, 28, 9, 124, 56, 37, 14, 12, 127, 54, 111, 0)
s = 74: (0, 76, 13, 59, 101, 69, 16, 9, 100, 39, 68, 0)
s = 75: (0, 42, 11, 108, 44, 71, 25, 16, 119, 46, 132, 0)
s = 76: (0, 32, 12, 127, 60, 59, 26, 12, 85, 31, 73, 0)
s = 77: (0, 68, 24, 120, 58, 70, 14, 12, 134, 55, 93, 0)
s = 78: (0, 49, 19, 127, 52, 44, 15, 13, 71, 40, 90, 0)
s = 79: (0, 54, 15, 112, 71, 76, 16, 14, 150, 67, 75, 0)
s = 80: (0, 34, 12, 63, 95, 31, 13, 8, 129, 51, 85, 0)
s = 81: (0, 83, 9, 118, 52, 45, 18, 13, 68, 49, 123, 0)
s = 82: (0, 59, 13, 56, 44, 50, 15, 9, 101, 44, 68, 0)
s = 83: (0, 44, 17, 77, 82, 53, 19, 8, 60, 38, 109, 0)
s = 84: (0, 37, 21, 77, 85, 42, 20, 16, 72, 41, 56, 0)
s = 85: (0, 63, 12, 83, 73, 46, 21, 13, 82, 60, 74, 0)
s = 86: (0, 47, 15, 93, 48, 51, 15, 14, 121, 40, 163, 0)
s = 87: (0, 81, 13, 82, 46, 68, 12, 14, 60, 49, 174, 0)
s = 88: (0, 38, 9, 92, 65, 84, 14, 13, 67, 53, 116, 0)
s = 89: (0, 32, 11, 156, 52, 78, 18, 10, 52, 47, 74, 0)
s = 90: (0, 56, 15, 132, 52, 61, 12, 7, 72, 47, 123, 0)
s = 91: (0, 47, 16, 87, 29, 58, 27, 11, 102, 70, 110, 0)
s = 92: (0, 30, 7, 88, 49, 50, 12, 10, 85, 83, 91, 0)
s = 93: (0, 28, 20, 82, 54, 51, 22, 10, 74, 44, 73, 0)
s = 94: (0, 48, 9, 72, 61, 70, 10, 17, 117, 54, 121, 0)
s = 95: (0, 71, 13, 82, 63, 32, 17, 14, 116, 51, 72, 0)
s = 96: (0, 48, 15, 125, 67, 69, 14, 15, 95, 41, 115, 0)
s = 97: (0, 34, 14, 85, 71, 37, 14, 9, 79, 50, 145, 0)
s = 98: (0, 43, 9, 79, 70, 40, 12, 11, 74, 38, 135, 0)
s = 99: (0, 37, 13, 91, 35, 63, 15, 14, 92, 45, 95, 0)
s = 100: (0, 57, 15, 84, 79, 38, 10, 12, 70, 46, 75, 0)
s = 101: (0, 36, 18, 127, 46, 50, 17, 19, 68, 49, 133, 0)
s = 102: (0, 56, 16, 95, 79, 41, 11, 13, 63, 82, 125, 0)
s = 103: (0, 57, 10, 159, 44, 62, 13, 8, 128, 39, 79, 0)
s = 104: (0, 54, 23, 57, 86, 33, 26, 8, 97, 72, 140, 0)
s = 105: (0, 74, 10, 63, 66, 38, 16, 7, 68, 47, 97, 0)
s = 106: (0, 58, 15, 123, 80, 74, 14, 9, 46, 41, 71, 0)
s = 107: (0, 45, 9, 64, 73, 46, 16, 9, 94, 61, 121, 0)
s = 108: (0, 59, 8, 111, 71, 37, 20, 8, 95, 59, 87, 0)
s = 109: (0, 83, 12, 144, 38, 41, 11, 7, 122, 56, 85, 0)
s = 110: (0, 75, 12, 71, 46, 50, 15, 16, 91, 32, 83, 0)
s = 111: (0, 40, 16, 82, 32, 58, 19, 11, 106, 36, 105, 0)
s = 112: (0, 45, 10, 51, 52, 75, 20, 10, 61, 31, 74, 0)
s = 113: (0, 59, 14, 78, 73, 36, 28, 8, 54, 41, 124, 0)
s = 114: (0, 48, 18, 121, 73, 35, 19, 7, 67, 49, 110, 0)
s = 115: (0, 54, 12, 118, 47, 46, 20, 11, 76, 30, 91, 0)
s = 116: (0, 49, 15, 87, 40, 62, 16, 8, 114, 38, 99, 0)
s = 117: (0, 36, 13, 78, 62, 58, 12, 8, 92, 38, 77, 0)
s = 118: (0, 66, 12, 106, 50, 43, 17, 12, 106, 61, 96, 0)
s = 119: (0, 95, 10, 91, 72, 78, 21, 8, 117, 40, 99, 0)
s = 120: (0, 44, 20, 88, 58, 75, 14, 7, 77, 59, 71, 0)
s = 121: (0, 32, 11, 61, 37, 40, 16, 11, 79, 44, 104, 0)
s = 122: (0, 75, 20, 100, 54, 54, 22, 12, 83, 60, 145, 0)
s = 123: (0, 46, 14, 89, 62, 65, 21, 15, 65, 40, 174, 0)
s = 124: (0, 44, 14, 83, 46, 73, 15, 9, 73, 36, 62, 0)
s = 125: (0, 74, 21, 66, 36, 58, 15, 8, 98, 34, 81, 0)
s = 126: (0, 33, 10, 68, 48, 67, 20, 7, 140, 53, 64, 0)
s = 127: (0, 43, 9, 95, 43, 40, 18, 7, 130, 58, 90, 0)
s = 128: (0, 27, 16, 113, 63, 69, 20, 9, 96, 70, 56, 0)
s = 129: (0, 56, 15, 63, 42, 59, 12, 6, 151, 45, 113, 0)
s = 130: (0, 95, 16, 92, 71, 57, 17, 9, 89, 46, 66, 0)
s = 131: (0, 40, 12, 91, 59, 73, 13, 8, 76, 59, 156, 0)
s = 132: (0, 44, 10, 95, 60, 56, 14, 8, 99, 82, 148, 0)
s = 133: (0, 47, 15, 92, 60, 39, 13, 7, 111, 36, 113, 0)
s = 134: (0, 63, 18, 69, 61, 29, 24, 7, 101, 40, 145, 0)
s = 135: (0, 68, 11, 94, 59, 74, 16, 12, 147, 37, 110, 0)
s = 136: (0, 51, 13, 82, 52, 51, 20, 12, 93, 48, 153, 0)
s = 137: (0, 53, 12, 96, 85, 51, 22, 12, 65, 55, 72, 0)
s = 138: (0, 53, 22, 60, 35, 33, 20, 12, 92, 50, 76, 0)
s = 139: (0, 42, 16, 79, 32, 43, 15, 10, 132, 49, 115, 0)
s = 140: (0, 47, 12, 85, 44, 72, 16, 12, 48, 38, 77, 0)
s = 141: (0, 64, 9, 109, 36, 46, 23, 11, 116, 37, 77, 0)
s = 142: (0, 89, 13, 82, 50, 40, 27, 8, 71, 86, 91, 0)
s = 143: (0, 58, 14, 62, 52, 50, 20, 10, 56, 48, 64, 0)
s = 144: (0, 42, 14, 84, 54, 42, 20, 9, 84, 47, 106, 0)
s = 145: (0, 49, 11, 64, 38, 43, 10, 8, 77, 44, 76, 0)
s = 146: (0, 47, 14, 69, 65, 59, 25, 9, 105, 57, 86, 0)
s = 147: (0, 54, 12, 76, 42, 54, 17, 10, 171, 46, 136, 0)
s = 148: (0, 58, 15, 96, 81, 68, 22, 10, 69, 90, 168, 0)
s = 149: (0, 58, 13, 112, 41, 39, 12, 10, 59, 55, 112, 0)
s = 150: (0, 30, 18, 139, 57, 37, 20, 16, 66, 36, 138, 0)
s = 151: (0, 52, 12, 91, 60, 39, 12, 10, 87, 85, 103, 0)
s = 152: (0, 69, 15, 74, 75, 33, 15, 9, 86, 48, 123, 0)
s = 153: (0, 36, 13, 99, 70, 36, 21, 13, 58, 88, 86, 0)
s = 154: (0, 36, 8, 131, 45, 32, 16, 9, 135, 39, 72, 0)
s = 155: (0, 49, 8, 97, 79, 67, 18, 10, 80, 38, 94, 0)
s = 156: (0, 74, 14, 87, 46, 97, 16, 14, 77, 49, 75, 0)
s = 157: (0, 47, 10, 94, 85, 68, 17, 10, 121, 41, 107, 0)
s = 158: (0, 46, 10, 97, 36, 50, 16, 11, 117, 37, 70, 0)
s = 159: (0, 53, 21, 108, 54, 51, 28, 8, 120, 35, 145, 0)
s = 160: (0, 67, 10, 85, 36, 64, 17, 15, 124, 58, 89, 0)
s = 161: (0, 34, 15, 76, 47, 88, 21, 16, 77, 53, 84, 0)
s = 162: (0, 72, 11, 83, 68, 48, 10, 12, 76, 35, 111, 0)
s = 163: (0, 32, 13, 117, 62, 52, 20, 9, 50, 38, 74, 0)
s = 164: (0, 59, 11, 78, 55, 50, 20, 11, 94, 67, 134, 0)
s = 165: (0, 36, 11, 114, 35, 49, 21, 9, 90, 43, 125, 0)
s = 166: (0, 52, 16, 112, 41, 69, 17, 8, 118, 43, 151, 0)
s = 167: (0, 58, 12, 80, 55, 38, 16, 11, 118, 64, 125, 0)
s = 168: (0, 37, 16, 97, 78, 67, 16, 11, 85, 49, 155, 0)
s = 169: (0, 61, 9, 147, 73, 56, 13, 14, 139, 68, 86, 0)
s = 170: (0, 33, 14, 87, 53, 33, 23, 12, 69, 64, 140, 0)
s = 171: (0, 63, 13, 103, 59, 64, 14, 10, 85, 47, 79, 0)
s = 172: (0, 77, 8, 101, 76, 41, 25, 11, 112, 48, 86, 0)
s = 173: (0, 30, 17, 87, 44, 43, 19, 11, 93, 38, 68, 0)
s = 174: (0, 56, 20, 124, 69, 32, 21, 10, 77, 30, 183, 0)
s = 175: (0, 47, 19, 79, 62, 47, 32, 9, 66, 34, 73, 0)
s = 176: (0, 73, 10, 76, 76, 29, 12, 12, 140, 81, 128, 0)
s = 177: (0, 43, 15, 67, 59, 66, 14, 16, 79, 70, 141, 0)
s = 178: (0, 33, 13, 132, 35, 29, 18, 11, 112, 48, 75, 0)
s = 179: (0, 42, 11, 88, 34, 34, 13, 14, 86, 29, 133, 0)
s = 180: (0, 48, 13, 53, 51, 43, 15, 15, 65, 72, 87, 0)
s = 181: (0, 51, 17, 134, 68, 64, 19, 12, 73, 57, 100, 0)
s = 182: (0, 47, 10, 75, 34, 29, 12, 8, 61, 62, 123, 0)
s = 183: (0, 56, 12, 94, 85, 67, 16, 12, 124, 53, 84, 0)
s = 184: (0, 38, 18, 84, 54, 59, 11, 14, 72, 41, 92, 0)
s = 185: (0, 44, 18, 56, 62, 54, 16, 7, 77, 45, 88, 0)
s = 186: (0, 50, 15, 149, 58, 33, 16, 10, 132, 38, 107, 0)
s = 187: (0, 70, 10, 65, 52, 64, 17, 15, 82, 51, 100, 0)
s = 188: (0, 36, 10, 71, 51, 51, 14, 12, 81, 39, 71, 0)
s = 189: (0, 74, 9, 70, 76, 46, 12, 10, 99, 70, 132, 0)
s = 190: (0, 43, 10, 76, 39, 47, 22, 11, 79, 58, 83, 0)
s = 191: (0, 53, 12, 71, 51, 91, 11, 13, 86, 41, 144, 0)
s = 192: (0, 61, 8, 127, 45, 30, 10, 18, 70, 29, 128, 0)
s = 193: (0, 77, 12, 148, 90, 80, 21, 13, 61, 46, 157, 0)
s = 194: (0, 65, 15, 120, 39, 31, 24, 10, 66, 66, 78, 0)
s = 195: (0, 63, 14, 68, 91, 58, 11, 11, 88, 59, 125, 0)
s = 196: (0, 58, 10, 124, 58, 73, 17, 7, 79, 45, 123, 0)
s = 197: (0, 45, 10, 116, 69, 32, 17, 12, 68, 54, 74, 0)
s = 198: (0, 66, 15, 108, 77, 36, 13, 13, 81, 51, 136, 0)
s = 199: (0, 47, 10, 104, 65, 61, 20, 7, 79, 75, 67, 0)
s = 200: (0, 40, 13, 79, 61, 54, 15, 14, 55, 58, 58, 0)
------------------------------------------------------------------------
RESOURCE k = 2
s = 1: (0, 29, 3, 87, 15, 6, 6, 8, 30, 26, 56, 0)
s = 2: (0, 44, 2, 70, 27, 4, 4, 7, 31, 35, 71, 0)
s = 3: (0, 25, 2, 104, 18, 5, 9, 12, 18, 32, 143, 0)
s = 4: (0, 40, 3, 63, 20, 5, 10, 8, 21, 51, 90, 0)
s = 5: (0, 28, 2, 67, 12, 6, 8, 12, 25, 45, 77, 0)
s = 6: (0, 41, 2, 65, 28, 7, 8, 9, 28, 45, 65, 0)
s = 7: (0, 26, 3, 51, 29, 7, 7, 10, 26, 63, 98, 0)
s = 8: (0, 50, 3, 85, 21, 10, 8, 9, 15, 51, 111, 0)
s = 9: (0, 22, 4, 40, 22, 6, 8, 8, 19, 48, 100, 0)
s = 10: (0, 39, 2, 71, 13, 8, 7, 11, 16, 52, 62, 0)
s = 11: (0, 32, 2, 75, 18, 4, 7, 8, 33, 26, 76, 0)
s = 12: (0, 49, 2, 63, 17, 6, 7, 7, 15, 42, 72, 0)
s = 13: (0, 55, 2, 59, 17, 5, 5, 6, 18, 54, 104, 0)
s = 14: (0, 26, 2, 51, 14, 9, 9, 8, 24, 24, 68, 0)
s = 15: (0, 50, 3, 76, 14, 9, 7, 13, 20, 30, 103, 0)
s = 16: (0, 30, 4, 106, 17, 8, 5, 10, 28, 41, 83, 0)
s = 17: (0, 48, 3, 81, 24, 6, 6, 9, 15, 32, 62, 0)
s = 18: (0, 39, 2, 66, 13, 9, 10, 8, 33, 33, 51, 0)
s = 19: (0, 32, 2, 47, 16, 4, 12, 9, 20, 31, 94, 0)
s = 20: (0, 35, 2, 59, 23, 4, 10, 9, 33, 57, 58, 0)
s = 21: (0, 21, 2, 43, 15, 4, 9, 12, 21, 57, 74, 0)
s = 22: (0, 32, 3, 80, 15, 8, 4, 10, 19, 40, 62, 0)
s = 23: (0, 31, 2, 79, 18, 7, 6, 8, 21, 46, 80, 0)
s = 24: (0, 42, 3, 73, 24, 7, 7, 15, 26, 32, 59, 0)
s = 25: (0, 45, 3, 100, 16, 6, 7, 8, 36, 41, 61, 0)
s = 26: (0, 31, 3, 59, 17, 7, 6, 12, 38, 28, 79, 0)
s = 27: (0, 43, 3, 110, 21, 9, 6, 9, 27, 34, 118, 0)
s = 28: (0, 40, 2, 121, 21, 6, 6, 10, 26, 39, 90, 0)
s = 29: (0, 31, 3, 58, 18, 6, 5, 7, 18, 32, 56, 0)
s = 30: (0, 36, 2, 93, 22, 5, 5, 8, 21, 46, 79, 0)
s = 31: (0, 35, 3, 73, 21, 7, 10, 7, 20, 39, 63, 0)
s = 32: (0, 27, 3, 58, 25, 5, 9, 13, 21, 56, 63, 0)
s = 33: (0, 43, 3, 126, 18, 6, 7, 11, 22, 40, 73, 0)
s = 34: (0, 44, 3, 64, 27, 7, 6, 8, 24, 23, 97, 0)
s = 35: (0, 50, 2, 108, 17, 7, 7, 11, 25, 45, 89, 0)
s = 36: (0, 36, 2, 59, 12, 8, 6, 8, 21, 54, 63, 0)
s = 37: (0, 45, 2, 49, 26, 7, 7, 15, 21, 43, 47, 0)
s = 38: (0, 43, 2, 52, 21, 7, 8, 10, 20, 38, 52, 0)
s = 39: (0, 49, 3, 59, 23, 9, 5, 6, 23, 21, 80, 0)
s = 40: (0, 26, 3, 87, 19, 7, 8, 7, 23, 34, 98, 0)
s = 41: (0, 44, 2, 74, 17, 6, 7, 14, 38, 47, 79, 0)
s = 42: (0, 37, 3, 63, 20, 5, 7, 8, 22, 52, 99, 0)
s = 43: (0, 44, 2, 63, 21, 6, 6, 9, 37, 53, 115, 0)
s = 44: (0, 31, 3, 42, 18, 7, 5, 13, 17, 40, 72, 0)
s = 45: (0, 21, 3, 68, 19, 5, 9, 10, 27, 42, 78, 0)
s = 46: (0, 28, 3, 110, 30, 5, 8, 12, 38, 61, 61, 0)
s = 47: (0, 28, 3, 50, 33, 7, 4, 12, 21, 42, 77, 0)
s = 48: (0, 39, 2, 57, 14, 9, 7, 13, 23, 29, 87, 0)
s = 49: (0, 33, 3, 79, 13, 6, 5, 12, 21, 54, 65, 0)
s = 50: (0, 35, 2, 94, 31, 6, 10, 9, 21, 51, 78, 0)
s = 51: (0, 36, 3, 53, 21, 7, 6, 7, 18, 35, 66, 0)
s = 52: (0, 45, 2, 114, 19, 7, 10, 12, 19, 46, 107, 0)
s = 53: (0, 25, 2, 67, 14, 10, 8, 9, 16, 24, 84, 0)
s = 54: (0, 27, 2, 67, 18, 7, 6, 10, 29, 48, 73, 0)
s = 55: (0, 41, 3, 56, 19, 4, 12, 9, 30, 55, 61, 0)
s = 56: (0, 27, 2, 53, 29, 8, 7, 12, 31, 28, 119, 0)
s = 57: (0, 31, 3, 69, 14, 9, 7, 8, 14, 60, 78, 0)
s = 58: (0, 31, 2, 55, 21, 6, 9, 11, 19, 47, 57, 0)
s = 59: (0, 25, 2, 54, 18, 5, 7, 15, 23, 29, 90, 0)
s = 60: (0, 44, 2, 46, 14, 7, 8, 14, 24, 29, 61, 0)
s = 61: (0, 33, 2, 63, 22, 6, 6, 12, 20, 37, 86, 0)
s = 62: (0, 45, 3, 40, 20, 5, 7, 10, 16, 33, 95, 0)
s = 63: (0, 21, 3, 84, 18, 6, 7, 7, 30, 29, 57, 0)
s = 64: (0, 24, 3, 89, 15, 9, 6, 16, 38, 51, 60, 0)
s = 65: (0, 30, 2, 80, 14, 7, 7, 10, 24, 22, 128, 0)
s = 66: (0, 40, 2, 74, 17, 5, 7, 12, 19, 31, 79, 0)
s = 67: (0, 35, 3, 55, 19, 5, 6, 9, 16, 30, 73, 0)
s = 68: (0, 41, 3, 103, 22, 5, 6, 8, 17, 58, 53, 0)
s = 69: (0, 35, 2, 84, 20, 7, 5, 9, 16, 67, 77, 0)
s = 70: (0, 26, 3, 55, 27, 7, 7, 6, 20, 28, 101, 0)
s = 71: (0, 37, 2, 75, 25, 5, 7, 6, 19, 41, 75, 0)
s = 72: (0, 39, 2, 56, 14, 5, 9, 6, 22, 55, 49, 0)
s = 73: (0, 20, 2, 93, 18, 5, 7, 11, 34, 41, 86, 0)
s = 74: (0, 53, 2, 44, 32, 9, 7, 8, 27, 30, 53, 0)
s = 75: (0, 30, 2, 81, 14, 9, 11, 14, 32, 35, 102, 0)
s = 76: (0, 23, 2, 95, 19, 7, 12, 11, 23, 24, 56, 0)
s = 77: (0, 48, 4, 90, 19, 9, 7, 11, 36, 43, 72, 0)
s = 78: (0, 35, 3, 95, 17, 6, 7, 12, 19, 31, 69, 0)
s = 79: (0, 38, 3, 84, 23, 9, 7, 12, 40, 52, 58, 0)
s = 80: (0, 24, 2, 47, 30, 4, 6, 7, 35, 39, 66, 0)
s = 81: (0, 58, 2, 89, 17, 6, 8, 12, 18, 38, 94, 0)
s = 82: (0, 41, 2, 42, 14, 6, 7, 8, 27, 34, 53, 0)
s = 83: (0, 31, 3, 58, 26, 7, 8, 8, 16, 29, 84, 0)
s = 84: (0, 26, 4, 58, 27, 5, 9, 15, 20, 32, 43, 0)
s = 85: (0, 44, 2, 62, 23, 6, 10, 12, 22, 46, 57, 0)
s = 86: (0, 33, 3, 70, 16, 6, 7, 13, 33, 31, 125, 0)
s = 87: (0, 57, 2, 62, 15, 8, 6, 13, 16, 38, 134, 0)
s = 88: (0, 27, 2, 69, 21, 10, 6, 12, 18, 41, 89, 0)
s = 89: (0, 23, 2, 117, 17, 10, 8, 9, 14, 36, 57, 0)
s = 90: (0, 39, 3, 99, 17, 8, 6, 7, 19, 36, 95, 0)
s = 91: (0, 33, 3, 65, 10, 7, 12, 10, 28, 54, 85, 0)
s = 92: (0, 21, 2, 66, 16, 6, 5, 9, 23, 64, 70, 0)
s = 93: (0, 20, 4, 62, 17, 6, 10, 9, 20, 34, 56, 0)
s = 94: (0, 34, 2, 54, 19, 9, 5, 16, 32, 42, 93, 0)
s = 95: (0, 50, 2, 61, 20, 4, 8, 13, 31, 40, 55, 0)
s = 96: (0, 34, 3, 94, 22, 9, 6, 14, 26, 32, 88, 0)
s = 97: (0, 24, 3, 64, 23, 5, 7, 8, 21, 38, 111, 0)
s = 98: (0, 30, 2, 59, 22, 5, 5, 10, 20, 29, 104, 0)
s = 99: (0, 26, 2, 69, 11, 8, 7, 12, 25, 35, 73, 0)
s = 100: (0, 40, 3, 63, 25, 5, 5, 11, 19, 36, 58, 0)
s = 101: (0, 26, 3, 96, 15, 6, 8, 17, 18, 38, 103, 0)
s = 102: (0, 39, 3, 71, 25, 5, 5, 12, 17, 63, 96, 0)
s = 103: (0, 40, 2, 119, 14, 8, 6, 7, 34, 30, 61, 0)
s = 104: (0, 38, 4, 43, 27, 4, 12, 7, 26, 55, 108, 0)
s = 105: (0, 52, 2, 48, 21, 5, 7, 6, 19, 37, 74, 0)
s = 106: (0, 41, 3, 92, 26, 9, 7, 8, 13, 32, 54, 0)
s = 107: (0, 32, 2, 48, 24, 6, 7, 8, 25, 47, 93, 0)
s = 108: (0, 41, 2, 83, 23, 5, 9, 7, 26, 45, 67, 0)
s = 109: (0, 58, 2, 108, 12, 5, 5, 7, 33, 43, 66, 0)
s = 110: (0, 53, 2, 54, 15, 6, 7, 14, 25, 25, 64, 0)
s = 111: (0, 28, 3, 61, 11, 7, 9, 10, 29, 28, 81, 0)
s = 112: (0, 32, 2, 39, 17, 9, 9, 9, 17, 24, 57, 0)
s = 113: (0, 41, 3, 59, 23, 5, 13, 7, 15, 32, 95, 0)
s = 114: (0, 34, 3, 91, 23, 5, 9, 6, 18, 38, 84, 0)
s = 115: (0, 38, 2, 88, 15, 6, 9, 10, 21, 23, 70, 0)
s = 116: (0, 35, 3, 65, 13, 8, 7, 7, 31, 29, 77, 0)
s = 117: (0, 26, 2, 59, 20, 7, 5, 8, 25, 29, 59, 0)
s = 118: (0, 47, 2, 80, 16, 5, 8, 11, 29, 47, 74, 0)
s = 119: (0, 66, 2, 69, 23, 10, 9, 7, 31, 31, 76, 0)
s = 120: (0, 31, 3, 66, 19, 9, 6, 6, 21, 45, 55, 0)
s = 121: (0, 22, 2, 46, 12, 5, 7, 10, 21, 34, 80, 0)
s = 122: (0, 53, 3, 75, 18, 7, 10, 11, 23, 47, 112, 0)
s = 123: (0, 32, 3, 67, 20, 8, 9, 13, 18, 31, 134, 0)
s = 124: (0, 31, 3, 63, 15, 9, 7, 8, 20, 28, 48, 0)
s = 125: (0, 52, 4, 50, 12, 7, 7, 7, 26, 26, 63, 0)
s = 126: (0, 23, 2, 51, 15, 8, 9, 6, 38, 41, 50, 0)
s = 127: (0, 30, 2, 72, 14, 5, 8, 6, 35, 45, 69, 0)
s = 128: (0, 19, 3, 85, 20, 9, 9, 8, 26, 54, 43, 0)
s = 129: (0, 39, 3, 47, 14, 7, 5, 5, 41, 35, 87, 0)
s = 130: (0, 67, 3, 69, 23, 7, 8, 8, 24, 36, 51, 0)
s = 131: (0, 28, 2, 68, 19, 9, 6, 8, 21, 45, 120, 0)
s = 132: (0, 31, 2, 71, 19, 7, 6, 8, 27, 64, 114, 0)
s = 133: (0, 33, 3, 69, 19, 5, 6, 7, 30, 28, 87, 0)
s = 134: (0, 44, 3, 52, 19, 4, 11, 7, 27, 31, 111, 0)
s = 135: (0, 48, 2, 71, 19, 9, 7, 10, 40, 29, 85, 0)
s = 136: (0, 36, 2, 61, 17, 6, 9, 11, 25, 37, 118, 0)
s = 137: (0, 37, 2, 72, 27, 6, 10, 11, 18, 42, 56, 0)
s = 138: (0, 37, 4, 45, 11, 4, 9, 11, 25, 39, 59, 0)
s = 139: (0, 29, 3, 60, 10, 5, 7, 9, 36, 37, 89, 0)
s = 140: (0, 33, 2, 64, 14, 9, 7, 11, 13, 29, 59, 0)
s = 141: (0, 45, 2, 82, 12, 6, 10, 10, 31, 29, 59, 0)
s = 142: (0, 63, 2, 61, 16, 5, 12, 7, 19, 66, 70, 0)
s = 143: (0, 41, 3, 47, 17, 6, 9, 9, 15, 37, 49, 0)
s = 144: (0, 29, 3, 63, 17, 5, 9, 8, 23, 36, 82, 0)
s = 145: (0, 34, 2, 48, 12, 5, 5, 8, 21, 34, 58, 0)
s = 146: (0, 33, 3, 52, 21, 7, 11, 8, 28, 44, 67, 0)
s = 147: (0, 38, 2, 57, 14, 7, 8, 9, 46, 35, 105, 0)
s = 148: (0, 41, 3, 72, 26, 8, 10, 9, 19, 69, 129, 0)
s = 149: (0, 41, 2, 84, 13, 5, 5, 9, 16, 42, 86, 0)
s = 150: (0, 21, 3, 105, 18, 5, 9, 14, 18, 28, 106, 0)
s = 151: (0, 37, 2, 68, 19, 5, 6, 9, 23, 66, 79, 0)
s = 152: (0, 48, 3, 56, 24, 4, 7, 8, 23, 37, 95, 0)
s = 153: (0, 25, 2, 74, 22, 5, 10, 12, 16, 68, 67, 0)
s = 154: (0, 25, 2, 98, 14, 4, 7, 8, 36, 30, 56, 0)
s = 155: (0, 35, 2, 73, 25, 8, 8, 9, 22, 30, 72, 0)
s = 156: (0, 52, 3, 65, 15, 12, 7, 12, 21, 38, 58, 0)
s = 157: (0, 33, 2, 71, 27, 8, 8, 9, 33, 32, 83, 0)
s = 158: (0, 32, 2, 73, 12, 6, 7, 10, 31, 29, 54, 0)
s = 159: (0, 37, 4, 81, 17, 6, 13, 7, 32, 27, 112, 0)
s = 160: (0, 47, 2, 64, 12, 8, 8, 13, 33, 44, 69, 0)
s = 161: (0, 24, 3, 57, 15, 11, 9, 14, 21, 41, 65, 0)
s = 162: (0, 50, 2, 62, 22, 6, 5, 11, 21, 27, 86, 0)
s = 163: (0, 22, 2, 88, 20, 7, 9, 8, 14, 29, 57, 0)
s = 164: (0, 41, 2, 59, 18, 6, 9, 10, 26, 51, 103, 0)
s = 165: (0, 26, 2, 86, 11, 6, 10, 8, 24, 33, 96, 0)
s = 166: (0, 36, 3, 84, 13, 9, 8, 7, 32, 34, 116, 0)
s = 167: (0, 41, 2, 60, 18, 5, 7, 10, 32, 49, 96, 0)
s = 168: (0, 26, 3, 73, 25, 8, 7, 10, 23, 38, 120, 0)
s = 169: (0, 43, 2, 111, 23, 7, 6, 13, 37, 52, 66, 0)
s = 170: (0, 23, 3, 66, 17, 4, 10, 11, 19, 49, 107, 0)
s = 171: (0, 44, 2, 77, 19, 8, 6, 9, 23, 36, 61, 0)
s = 172: (0, 54, 2, 76, 24, 5, 11, 10, 30, 37, 66, 0)
s = 173: (0, 21, 3, 66, 14, 6, 8, 10, 25, 29, 53, 0)
s = 174: (0, 40, 4, 93, 22, 4, 10, 9, 21, 23, 141, 0)
s = 175: (0, 33, 3, 59, 20, 6, 14, 8, 18, 26, 56, 0)
s = 176: (0, 51, 2, 57, 24, 4, 5, 11, 38, 63, 99, 0)
s = 177: (0, 30, 3, 50, 19, 8, 7, 15, 21, 54, 109, 0)
s = 178: (0, 23, 2, 99, 11, 4, 8, 10, 30, 37, 58, 0)
s = 179: (0, 29, 2, 66, 11, 4, 6, 13, 23, 22, 102, 0)
s = 180: (0, 34, 2, 40, 16, 6, 7, 13, 18, 55, 67, 0)
s = 181: (0, 36, 3, 101, 22, 8, 9, 11, 20, 44, 77, 0)
s = 182: (0, 33, 2, 57, 11, 4, 5, 7, 17, 48, 95, 0)
s = 183: (0, 39, 2, 71, 27, 8, 7, 11, 33, 41, 64, 0)
s = 184: (0, 27, 3, 63, 17, 7, 5, 13, 20, 32, 71, 0)
s = 185: (0, 31, 3, 42, 20, 7, 7, 7, 21, 35, 68, 0)
s = 186: (0, 35, 3, 112, 19, 4, 7, 9, 35, 29, 82, 0)
s = 187: (0, 49, 2, 49, 17, 8, 8, 13, 22, 39, 77, 0)
s = 188: (0, 26, 2, 53, 16, 6, 6, 11, 22, 30, 55, 0)
s = 189: (0, 52, 2, 53, 24, 6, 5, 9, 27, 54, 102, 0)
s = 190: (0, 30, 2, 57, 13, 6, 10, 10, 21, 45, 64, 0)
s = 191: (0, 37, 2, 53, 17, 11, 5, 12, 23, 32, 111, 0)
s = 192: (0, 43, 2, 95, 15, 4, 5, 16, 19, 22, 98, 0)
s = 193: (0, 54, 2, 111, 29, 10, 9, 12, 17, 35, 121, 0)
s = 194: (0, 46, 3, 90, 13, 4, 11, 9, 18, 51, 60, 0)
s = 195: (0, 44, 3, 51, 29, 7, 5, 10, 24, 45, 96, 0)
s = 196: (0, 41, 2, 93, 19, 9, 8, 7, 21, 35, 94, 0)
s = 197: (0, 31, 2, 87, 22, 4, 8, 11, 18, 42, 57, 0)
s = 198: (0, 46, 3, 81, 25, 5, 6, 12, 22, 39, 105, 0)
s = 199: (0, 33, 2, 78, 21, 8, 9, 7, 21, 58, 51, 0)
s = 200: (0, 28, 2, 59, 20, 7, 7, 13, 15, 45, 45, 0)
------------------------------------------------------------------------
RESOURCE k = 3
s = 1: (0, 41, 15, 39, 5, 20, 3, 8, 68, 16, 34, 0)
s = 2: (0, 63, 9, 31, 9, 13, 2, 7, 70, 21, 43, 0)
s = 3: (0, 36, 7, 46, 6, 15, 4, 12, 40, 20, 86, 0)
s = 4: (0, 56, 13, 28, 7, 16, 5, 8, 47, 31, 54, 0)
s = 5: (0, 40, 8, 30, 4, 21, 4, 12, 56, 27, 47, 0)
s = 6: (0, 59, 10, 29, 10, 22, 4, 9, 61, 27, 39, 0)
s = 7: (0, 36, 11, 23, 10, 25, 3, 10, 58, 38, 59, 0)
s = 8: (0, 71, 12, 38, 7, 35, 4, 9, 34, 31, 67, 0)
s = 9: (0, 31, 18, 18, 8, 19, 4, 8, 42, 29, 60, 0)
s = 10: (0, 55, 6, 32, 5, 27, 3, 11, 36, 31, 37, 0)
s = 11: (0, 46, 8, 34, 6, 14, 3, 8, 73, 16, 46, 0)
s = 12: (0, 70, 8, 28, 6, 19, 3, 7, 33, 25, 43, 0)
s = 13: (0, 79, 8, 26, 6, 16, 3, 6, 39, 32, 63, 0)
s = 14: (0, 37, 8, 23, 5, 31, 4, 8, 54, 15, 41, 0)
s = 15: (0, 72, 11, 34, 5, 29, 3, 13, 45, 18, 62, 0)
s = 16: (0, 43, 16, 48, 6, 28, 3, 10, 63, 25, 50, 0)
s = 17: (0, 68, 12, 36, 8, 19, 3, 9, 34, 20, 38, 0)
s = 18: (0, 55, 6, 30, 5, 29, 5, 8, 75, 20, 31, 0)
s = 19: (0, 46, 10, 21, 6, 13, 6, 9, 44, 19, 57, 0)
s = 20: (0, 49, 10, 27, 8, 14, 4, 9, 73, 35, 35, 0)
s = 21: (0, 29, 6, 19, 5, 13, 4, 12, 48, 35, 45, 0)
s = 22: (0, 46, 11, 36, 5, 27, 2, 10, 43, 24, 37, 0)
s = 23: (0, 44, 7, 35, 6, 23, 3, 8, 46, 28, 48, 0)
s = 24: (0, 60, 11, 33, 8, 23, 3, 15, 57, 19, 36, 0)
s = 25: (0, 64, 12, 45, 6, 19, 3, 8, 79, 25, 37, 0)
s = 26: (0, 45, 14, 27, 6, 24, 3, 12, 85, 17, 47, 0)
s = 27: (0, 62, 12, 49, 7, 29, 3, 9, 60, 20, 71, 0)
s = 28: (0, 57, 9, 54, 7, 21, 3, 10, 57, 24, 54, 0)
s = 29: (0, 45, 11, 26, 6, 20, 2, 7, 41, 20, 34, 0)
s = 30: (0, 51, 9, 42, 8, 17, 2, 8, 46, 28, 48, 0)
s = 31: (0, 49, 12, 33, 7, 22, 4, 7, 44, 24, 38, 0)
s = 32: (0, 38, 14, 26, 9, 17, 4, 13, 48, 34, 38, 0)
s = 33: (0, 61, 12, 56, 6, 20, 3, 11, 50, 24, 44, 0)
s = 34: (0, 62, 14, 29, 9, 22, 3, 8, 54, 14, 58, 0)
s = 35: (0, 72, 7, 48, 6, 22, 3, 11, 55, 27, 53, 0)
s = 36: (0, 51, 9, 26, 4, 28, 3, 8, 46, 33, 38, 0)
s = 37: (0, 64, 8, 22, 9, 23, 3, 15, 46, 26, 29, 0)
s = 38: (0, 62, 7, 23, 7, 25, 4, 10, 45, 23, 32, 0)
s = 39: (0, 69, 12, 26, 8, 31, 3, 6, 51, 13, 48, 0)
s = 40: (0, 36, 11, 39, 7, 23, 4, 7, 51, 20, 59, 0)
s = 41: (0, 63, 9, 33, 6, 21, 3, 14, 85, 28, 47, 0)
s = 42: (0, 53, 11, 28, 7, 15, 3, 8, 49, 31, 60, 0)
s = 43: (0, 63, 10, 28, 7, 18, 3, 9, 84, 32, 69, 0)
s = 44: (0, 43, 12, 19, 6, 24, 2, 13, 37, 24, 43, 0)
s = 45: (0, 30, 12, 30, 7, 15, 4, 10, 60, 26, 47, 0)
s = 46: (0, 40, 11, 49, 10, 15, 4, 12, 86, 37, 37, 0)
s = 47: (0, 39, 14, 23, 11, 24, 2, 12, 46, 25, 46, 0)
s = 48: (0, 55, 10, 26, 5, 31, 3, 13, 51, 18, 53, 0)
s = 49: (0, 48, 11, 36, 5, 21, 3, 12, 47, 33, 39, 0)
s = 50: (0, 50, 10, 42, 11, 19, 5, 9, 46, 31, 47, 0)
s = 51: (0, 51, 14, 24, 7, 22, 3, 7, 40, 21, 40, 0)
s = 52: (0, 63, 8, 51, 7, 24, 5, 12, 42, 28, 65, 0)
s = 53: (0, 35, 8, 30, 5, 33, 4, 9, 36, 14, 51, 0)
s = 54: (0, 38, 8, 30, 6, 25, 3, 10, 64, 29, 44, 0)
s = 55: (0, 58, 15, 25, 7, 12, 5, 9, 66, 33, 37, 0)
s = 56: (0, 39, 10, 24, 10, 28, 3, 12, 68, 17, 71, 0)
s = 57: (0, 43, 11, 31, 5, 31, 3, 8, 30, 36, 47, 0)
s = 58: (0, 44, 8, 25, 7, 21, 4, 11, 42, 29, 35, 0)
s = 59: (0, 36, 7, 24, 6, 17, 3, 15, 52, 18, 54, 0)
s = 60: (0, 62, 10, 21, 5, 24, 4, 14, 53, 18, 37, 0)
s = 61: (0, 47, 8, 28, 8, 21, 3, 12, 44, 22, 52, 0)
s = 62: (0, 64, 15, 18, 7, 15, 3, 10, 36, 20, 57, 0)
s = 63: (0, 30, 13, 38, 6, 21, 3, 7, 66, 18, 34, 0)
s = 64: (0, 34, 11, 40, 5, 31, 3, 16, 85, 31, 36, 0)
s = 65: (0, 43, 10, 36, 5, 23, 3, 10, 53, 14, 77, 0)
s = 66: (0, 57, 8, 33, 6, 15, 3, 12, 42, 19, 48, 0)
s = 67: (0, 50, 15, 25, 7, 18, 3, 9, 35, 18, 44, 0)
s = 68: (0, 59, 12, 46, 8, 15, 3, 8, 38, 35, 32, 0)
s = 69: (0, 50, 10, 38, 7, 23, 3, 9, 35, 41, 46, 0)
s = 70: (0, 37, 11, 25, 9, 22, 3, 6, 44, 17, 61, 0)
s = 71: (0, 52, 7, 34, 9, 17, 3, 6, 42, 25, 45, 0)
s = 72: (0, 56, 9, 25, 5, 15, 4, 6, 49, 33, 29, 0)
s = 73: (0, 28, 7, 42, 6, 16, 3, 11, 77, 25, 52, 0)
s = 74: (0, 76, 10, 20, 11, 29, 3, 8, 60, 18, 32, 0)
s = 75: (0, 42, 8, 36, 5, 30, 5, 14, 72, 21, 61, 0)
s = 76: (0, 32, 10, 43, 7, 24, 5, 11, 51, 15, 34, 0)
s = 77: (0, 68, 19, 40, 7, 29, 3, 11, 81, 26, 43, 0)
s = 78: (0, 49, 15, 43, 6, 18, 3, 12, 43, 19, 42, 0)
s = 79: (0, 54, 12, 38, 8, 31, 3, 12, 90, 31, 35, 0)
s = 80: (0, 34, 9, 21, 10, 13, 3, 7, 77, 24, 40, 0)
s = 81: (0, 83, 7, 40, 6, 19, 4, 12, 41, 23, 57, 0)
s = 82: (0, 59, 10, 19, 5, 21, 3, 8, 61, 20, 32, 0)
s = 83: (0, 44, 13, 26, 9, 22, 4, 8, 36, 18, 50, 0)
s = 84: (0, 37, 16, 26, 9, 17, 4, 15, 43, 19, 26, 0)
s = 85: (0, 63, 10, 28, 8, 19, 4, 12, 49, 28, 34, 0)
s = 86: (0, 47, 12, 31, 6, 21, 3, 13, 73, 19, 75, 0)
s = 87: (0, 81, 10, 28, 5, 28, 3, 13, 36, 23, 81, 0)
s = 88: (0, 38, 7, 31, 7, 35, 3, 12, 41, 25, 54, 0)
s = 89: (0, 32, 9, 52, 6, 32, 4, 9, 32, 22, 34, 0)
s = 90: (0, 56, 11, 44, 6, 26, 3, 7, 43, 22, 57, 0)
s = 91: (0, 47, 13, 29, 4, 24, 5, 10, 62, 33, 51, 0)
s = 92: (0, 30, 6, 30, 6, 21, 3, 9, 51, 39, 42, 0)
s = 93: (0, 28, 16, 28, 6, 21, 5, 9, 45, 21, 34, 0)
s = 94: (0, 48, 7, 24, 7, 29, 2, 16, 70, 25, 56, 0)
s = 95: (0, 71, 10, 28, 7, 13, 4, 13, 70, 24, 33, 0)
s = 96: (0, 48, 12, 42, 8, 29, 3, 14, 57, 19, 53, 0)
s = 97: (0, 34, 11, 29, 8, 16, 3, 8, 48, 23, 67, 0)
s = 98: (0, 43, 7, 27, 8, 17, 3, 10, 44, 18, 62, 0)
s = 99: (0, 37, 10, 31, 4, 26, 3, 12, 55, 21, 44, 0)
s = 100: (0, 57, 12, 28, 9, 16, 2, 11, 42, 22, 35, 0)
s = 101: (0, 36, 14, 43, 5, 21, 4, 17, 41, 23, 62, 0)
s = 102: (0, 56, 12, 32, 9, 17, 2, 12, 38, 38, 58, 0)
s = 103: (0, 57, 8, 53, 5, 26, 3, 7, 77, 18, 37, 0)
s = 104: (0, 54, 17, 19, 9, 14, 5, 7, 58, 33, 65, 0)
s = 105: (0, 74, 8, 21, 7, 16, 3, 6, 41, 22, 45, 0)
s = 106: (0, 58, 11, 41, 9, 31, 3, 8, 28, 19, 33, 0)
s = 107: (0, 45, 7, 22, 8, 19, 3, 8, 56, 28, 56, 0)
s = 108: (0, 59, 6, 37, 8, 15, 4, 7, 57, 27, 40, 0)
s = 109: (0, 83, 10, 48, 4, 17, 2, 7, 74, 26, 40, 0)
s = 110: (0, 75, 10, 24, 5, 21, 3, 14, 55, 15, 39, 0)
s = 111: (0, 40, 13, 28, 4, 24, 4, 10, 64, 17, 49, 0)
s = 112: (0, 45, 8, 17, 6, 31, 4, 9, 37, 14, 35, 0)
s = 113: (0, 59, 11, 26, 8, 15, 6, 7, 33, 19, 57, 0)
s = 114: (0, 48, 14, 41, 8, 15, 4, 6, 40, 23, 51, 0)
s = 115: (0, 54, 9, 40, 5, 19, 4, 10, 46, 14, 42, 0)
s = 116: (0, 49, 12, 29, 5, 26, 3, 7, 69, 18, 46, 0)
s = 117: (0, 36, 10, 26, 7, 24, 3, 8, 56, 18, 36, 0)
s = 118: (0, 66, 10, 36, 6, 18, 4, 11, 64, 28, 45, 0)
s = 119: (0, 95, 8, 31, 8, 33, 4, 7, 70, 19, 46, 0)
s = 120: (0, 44, 15, 30, 7, 31, 3, 6, 46, 27, 33, 0)
s = 121: (0, 32, 9, 21, 4, 17, 3, 10, 48, 20, 48, 0)
s = 122: (0, 75, 15, 34, 6, 23, 5, 11, 50, 28, 67, 0)
s = 123: (0, 46, 11, 30, 7, 27, 4, 13, 39, 19, 81, 0)
s = 124: (0, 44, 11, 28, 5, 30, 3, 8, 44, 17, 29, 0)
s = 125: (0, 74, 16, 22, 4, 24, 3, 7, 59, 16, 38, 0)
s = 126: (0, 33, 8, 23, 5, 28, 4, 6, 84, 25, 30, 0)
s = 127: (0, 43, 7, 32, 5, 17, 4, 6, 78, 27, 42, 0)
s = 128: (0, 27, 13, 38, 7, 29, 4, 8, 58, 33, 26, 0)
s = 129: (0, 56, 12, 21, 5, 25, 3, 5, 91, 21, 52, 0)
s = 130: (0, 95, 12, 31, 8, 24, 4, 8, 53, 22, 31, 0)
s = 131: (0, 40, 9, 31, 7, 30, 3, 8, 46, 27, 72, 0)
s = 132: (0, 44, 8, 32, 7, 23, 3, 8, 60, 38, 68, 0)
s = 133: (0, 47, 11, 31, 7, 16, 3, 7, 67, 17, 52, 0)
s = 134: (0, 63, 14, 23, 7, 12, 5, 7, 61, 19, 67, 0)
s = 135: (0, 68, 9, 32, 7, 31, 3, 10, 89, 17, 51, 0)
s = 136: (0, 51, 10, 28, 6, 21, 4, 11, 56, 23, 71, 0)
s = 137: (0, 53, 10, 32, 9, 21, 5, 11, 39, 26, 34, 0)
s = 138: (0, 53, 17, 20, 4, 14, 4, 11, 56, 23, 36, 0)
s = 139: (0, 42, 12, 27, 4, 18, 3, 9, 80, 23, 53, 0)
s = 140: (0, 47, 9, 29, 5, 30, 3, 11, 29, 18, 36, 0)
s = 141: (0, 64, 7, 37, 4, 19, 5, 10, 70, 17, 36, 0)
s = 142: (0, 89, 10, 28, 6, 17, 5, 7, 43, 40, 42, 0)
s = 143: (0, 58, 11, 21, 6, 21, 4, 9, 34, 23, 30, 0)
s = 144: (0, 42, 11, 28, 6, 18, 4, 8, 50, 22, 49, 0)
s = 145: (0, 49, 8, 22, 4, 18, 2, 8, 46, 21, 35, 0)
s = 146: (0, 47, 11, 23, 7, 25, 5, 8, 63, 26, 40, 0)
s = 147: (0, 54, 9, 26, 5, 22, 4, 9, 103, 21, 63, 0)
s = 148: (0, 58, 12, 32, 9, 28, 5, 9, 42, 42, 78, 0)
s = 149: (0, 58, 10, 38, 5, 16, 3, 9, 36, 26, 52, 0)
s = 150: (0, 30, 14, 47, 6, 16, 4, 14, 40, 17, 64, 0)
s = 151: (0, 52, 9, 31, 7, 16, 3, 9, 52, 40, 48, 0)
s = 152: (0, 69, 12, 25, 8, 14, 3, 8, 52, 22, 57, 0)
s = 153: (0, 36, 10, 33, 8, 15, 4, 12, 35, 41, 40, 0)
s = 154: (0, 36, 6, 44, 5, 13, 3, 8, 81, 18, 34, 0)
s = 155: (0, 49, 7, 33, 9, 28, 4, 9, 48, 18, 43, 0)
s = 156: (0, 74, 11, 29, 5, 40, 3, 12, 46, 23, 35, 0)
s = 157: (0, 47, 7, 32, 9, 28, 4, 9, 73, 19, 50, 0)
s = 158: (0, 46, 8, 33, 4, 21, 3, 10, 70, 17, 33, 0)
s = 159: (0, 53, 17, 36, 6, 21, 6, 7, 72, 17, 67, 0)
s = 160: (0, 67, 7, 29, 4, 27, 4, 13, 75, 27, 41, 0)
s = 161: (0, 34, 12, 26, 5, 37, 4, 14, 47, 25, 39, 0)
s = 162: (0, 72, 8, 28, 8, 20, 2, 11, 46, 16, 52, 0)
s = 163: (0, 32, 10, 39, 7, 22, 4, 8, 30, 18, 34, 0)
s = 164: (0, 59, 9, 26, 6, 21, 4, 10, 57, 31, 62, 0)
s = 165: (0, 36, 9, 38, 4, 21, 4, 8, 54, 20, 58, 0)
s = 166: (0, 52, 12, 38, 5, 29, 4, 7, 71, 20, 70, 0)
s = 167: (0, 58, 9, 27, 6, 16, 3, 10, 71, 30, 58, 0)
s = 168: (0, 37, 12, 33, 9, 28, 3, 10, 51, 23, 72, 0)
s = 169: (0, 61, 7, 49, 8, 23, 3, 13, 83, 31, 40, 0)
s = 170: (0, 33, 11, 29, 6, 14, 5, 11, 41, 30, 65, 0)
s = 171: (0, 63, 10, 35, 7, 26, 3, 9, 51, 22, 37, 0)
s = 172: (0, 77, 7, 34, 8, 17, 5, 10, 67, 23, 40, 0)
s = 173: (0, 30, 13, 29, 5, 18, 4, 10, 56, 18, 32, 0)
s = 174: (0, 56, 16, 42, 8, 14, 4, 9, 47, 14, 85, 0)
s = 175: (0, 47, 15, 27, 7, 20, 6, 8, 40, 16, 34, 0)
s = 176: (0, 73, 8, 26, 8, 12, 3, 11, 84, 38, 59, 0)
s = 177: (0, 43, 11, 23, 7, 27, 3, 15, 47, 32, 65, 0)
s = 178: (0, 33, 10, 44, 4, 12, 4, 10, 68, 22, 35, 0)
s = 179: (0, 42, 9, 30, 4, 14, 3, 13, 52, 13, 61, 0)
s = 180: (0, 48, 10, 18, 6, 18, 3, 13, 39, 33, 40, 0)
s = 181: (0, 51, 13, 45, 8, 27, 4, 11, 44, 26, 47, 0)
s = 182: (0, 47, 7, 25, 4, 12, 3, 7, 37, 29, 57, 0)
s = 183: (0, 56, 9, 32, 9, 28, 3, 11, 75, 25, 39, 0)
s = 184: (0, 38, 14, 28, 6, 25, 2, 13, 43, 19, 43, 0)
s = 185: (0, 44, 14, 19, 7, 23, 3, 7, 46, 21, 41, 0)
s = 186: (0, 50, 11, 50, 7, 14, 3, 9, 79, 18, 50, 0)
s = 187: (0, 70, 7, 22, 6, 27, 4, 13, 49, 24, 47, 0)
s = 188: (0, 36, 8, 24, 6, 21, 3, 11, 49, 18, 33, 0)
s = 189: (0, 74, 7, 24, 8, 19, 3, 9, 60, 33, 61, 0)
s = 190: (0, 43, 8, 26, 5, 19, 5, 10, 47, 27, 39, 0)
s = 191: (0, 53, 10, 24, 6, 38, 3, 12, 52, 19, 67, 0)
s = 192: (0, 61, 6, 43, 5, 13, 2, 16, 42, 14, 59, 0)
s = 193: (0, 77, 9, 50, 10, 33, 4, 12, 37, 21, 73, 0)
s = 194: (0, 65, 12, 40, 5, 13, 5, 9, 40, 31, 36, 0)
s = 195: (0, 63, 11, 23, 10, 24, 2, 10, 53, 27, 58, 0)
s = 196: (0, 58, 8, 42, 7, 31, 4, 7, 48, 21, 57, 0)
s = 197: (0, 45, 8, 39, 8, 13, 4, 11, 41, 25, 34, 0)
s = 198: (0, 66, 12, 36, 9, 15, 3, 12, 49, 24, 63, 0)
s = 199: (0, 47, 8, 35, 7, 25, 4, 7, 47, 35, 31, 0)
s = 200: (0, 40, 10, 27, 7, 23, 3, 13, 33, 27, 27, 0)
************************************************************************
ES/LS-VALUES:
jobnr.   ES(i)    LS(i)
------------------------------------------------------------------------
  0        0        0
  1        0       41
  2        0       51
  3        0       43
  4        9       51
  5        2       53
  6       14       57
  7        9       65
  8       14       62
  9       14       67
 10       16       59
 11       30       74
************************************************************************
BIG-M-VALUES:
M1 = 85, M2 = 414
************************************************************************
